50	100	100	100
82	43	74
94	18	85
97	13	86
78	41	95
77	29	95
81	9	81
96	2	73
67	17	98
71	6	74
91	12	95
70	36	86
68	16	74
71	34	86
87	5	93
80	40	95
66	7	73
92	29	69
91	30	90
70	26	89
96	32	76
68	42	90
89	38	91
84	48	89
86	35	81
94	15	95
73	48	89
83	28	70
83	35	73
84	25	66
89	22	80
93	11	86
97	42	69
88	31	76
86	16	91
90	15	97
78	14	78
93	32	86
74	4	98
80	24	97
66	39	95
85	4	82
82	33	85
81	46	69
96	45	75
73	39	96
80	37	76
82	14	99
80	34	94
96	39	77
95	23	86
